assets/logs/2_12x12_clingo/2_12x12_clingo.solution.log

-------------------------------------------------
|  0| 98| 61| 42|104|118| 57|  1|108|114| 33|107|
-------------------------------------------------
| 63|124|102| 96| 59| 44|106|116| 31|109|110| 37|
-------------------------------------------------
|100| 94| 40| 46|120| 10| 29| 55|112| 35|105|111|
-------------------------------------------------
|126| 65|122| 36| 27| 53| 47|  8|103|113| 39|  0|
-------------------------------------------------
| 92| 38| 48|  1| 49| 23| 12| 30| 45|  6|101|  1|
-------------------------------------------------
| 67|128| 70| 25| 34| 28| 51| 21| 99| 41|115|137|
-------------------------------------------------
| 68| 90| 69| 50| 64| 14| 32| 43|117|135|  4| 15|
-------------------------------------------------
|130| 72| 66| 56| 26| 52|119| 97| 19| 13|123|133|
-------------------------------------------------
| 88| 71| 80| 62| 16| 58| 24| 87|121|131| 17|  2|
-------------------------------------------------
| 74|132| 86| 73| 54| 85| 18| 81| 95| 89| 11|125|
-------------------------------------------------
|  0| 82|136| 78| 60|  3| 77| 22|129|  7|  0| 91|
-------------------------------------------------
|134| 76|  1| 84| 75| 20| 83|  5| 79| 93|127|  9|
-------------------------------------------------

| n = 12 | k = 4 | coverage = 140, 97.22222222222223%
 Time 299.998
 Name 2_12x12_clingo

