assets/logs/2_12x12_clingo/2_12x12_clingo.log
clingo version 5.4.0
Reading from ...ts/logs/2_12x12_clingo/knights_tour.lp ...
Solving...
Answer: 1
occ(1,5,4) occ(1,1,8) occ(1,12,3) occ(1,5,12) occ(2,9,12) occ(3,11,6) coverage(6)
Optimization: -6
Answer: 2
occ(1,5,4) occ(1,1,8) occ(1,12,3) occ(1,5,12) occ(2,9,12) occ(3,11,6) coverage(7) occ(4,11,11) occ(6,12,9)
Optimization: -7
Answer: 3
occ(1,5,4) occ(1,1,8) occ(1,12,3) occ(1,5,12) occ(2,9,12) occ(3,11,6) coverage(8) occ(4,11,11) occ(7,11,2) occ(5,12,4) occ(6,12,9)
Optimization: -8
Answer: 4
occ(1,5,4) occ(1,1,8) occ(1,12,3) occ(1,5,12) occ(2,9,12) occ(3,11,6) coverage(9) occ(4,11,11) occ(7,11,2) occ(8,11,7) occ(5,12,4) occ(6,12,9)
Optimization: -9
Answer: 5
occ(1,5,4) occ(1,1,8) occ(1,12,3) occ(1,5,12) occ(2,9,12) occ(3,11,6) coverage(11) occ(9,9,1) occ(4,11,11) occ(7,11,2) occ(8,11,7) occ(5,12,4) occ(6,12,9) occ(10,12,5)
Optimization: -11
Answer: 6
occ(1,5,4) occ(1,1,8) occ(1,12,3) occ(1,5,12) occ(2,9,12) occ(3,11,6) coverage(12) occ(11,7,2) occ(9,9,1) occ(4,11,11) occ(7,11,2) occ(8,11,7) occ(5,12,4) occ(6,12,9) occ(10,12,5)
Optimization: -12
Answer: 7
occ(1,5,4) occ(1,1,8) occ(1,12,3) occ(1,5,12) occ(2,9,12) occ(3,11,6) coverage(13) occ(11,7,2) occ(9,9,1) occ(4,11,11) occ(7,11,2) occ(8,11,7) occ(12,11,3) occ(5,12,4) occ(6,12,9) occ(10,12,5)
Optimization: -13
Answer: 8
occ(1,5,4) occ(1,1,8) occ(1,12,3) occ(1,5,12) occ(2,9,12) occ(3,11,6) coverage(56) occ(21,1,11) occ(28,1,9) occ(31,1,6) occ(35,1,10) occ(39,1,12) occ(111,1,4) occ(119,1,2) occ(125,1,7) occ(133,1,3) occ(19,2,9) occ(30,2,7) occ(33,2,8) occ(41,2,10) occ(83,2,11) occ(109,2,2) occ(115,2,3) occ(121,2,4) occ(127,2,5) occ(131,2,1) occ(23,3,12) occ(26,3,10) occ(29,3,7) occ(37,3,11) occ(81,3,9) occ(107,3,4) occ(113,3,5) occ(117,3,1) occ(123,3,6) occ(129,3,3) occ(135,3,2) occ(17,4,8) occ(18,4,9) occ(25,4,10) occ(32,4,6) occ(43,4,11) occ(75,4,3) occ(79,4,7) occ(85,4,12) occ(97,4,4) occ(105,4,2) occ(16,5,7) occ(24,5,11) occ(27,5,8) occ(38,5,6) occ(77,5,5) occ(99,5,2) occ(137,5,1) occ(15,6,9) occ(20,6,10) occ(34,6,7) occ(40,6,8) occ(45,6,12) occ(73,6,2) occ(87,6,11) occ(95,6,5) occ(103,6,1) occ(139,6,3) occ(13,7,11) occ(14,7,6) occ(22,7,12) occ(36,7,5) occ(42,7,10) occ(89,7,9) occ(93,7,7) occ(101,7,3) occ(141,7,1) occ(11,8,9) occ(12,8,4) occ(44,8,8) occ(47,8,11) occ(71,8,1) occ(9,9,7) occ(10,9,6) occ(63,9,4) occ(91,9,8) occ(143,9,2) occ(7,10,5) occ(46,10,9) occ(49,10,12) occ(52,10,10) occ(55,10,11) occ(69,10,2) occ(4,11,11) occ(8,11,7) occ(50,11,12) occ(51,11,10) occ(57,11,9) occ(61,11,5) occ(65,11,3) occ(5,12,4) occ(6,12,9) occ(48,12,10) occ(53,12,12) occ(54,12,11) occ(59,12,7) occ(67,12,1)
Optimization: -56
Answer: 9
occ(1,5,4) occ(1,1,8) occ(1,12,3) occ(1,5,12) occ(2,9,12) occ(3,11,6) coverage(120) occ(27,1,10) occ(36,1,5) occ(48,1,3) occ(51,1,4) occ(54,1,2) occ(66,1,6) occ(105,1,7) occ(29,2,12) occ(38,2,3) occ(43,2,11) occ(46,2,5) occ(47,2,7) occ(52,2,4) occ(68,2,8) occ(103,2,9) occ(113,2,10) occ(25,3,11) occ(26,3,10) occ(34,3,6) occ(45,3,9) occ(49,3,5) occ(50,3,2) occ(53,3,3) occ(56,3,1) occ(64,3,7) occ(107,3,8) occ(111,3,12) occ(123,3,4) occ(31,4,11) occ(40,4,2) occ(41,4,12) occ(44,4,4) occ(58,4,3) occ(70,4,7) occ(75,4,5) occ(101,4,8) occ(109,4,10) occ(115,4,9) occ(121,4,6) occ(23,5,10) occ(24,5,11) occ(28,5,9) occ(32,5,5) occ(55,5,2) occ(62,5,6) occ(77,5,7) occ(119,5,8) occ(125,5,3) occ(30,6,7) occ(33,6,12) occ(39,6,11) occ(42,6,3) occ(60,6,4) occ(72,6,8) occ(73,6,6) occ(79,6,5) occ(99,6,9) occ(117,6,10) occ(127,6,1) occ(133,6,2) occ(16,7,7) occ(17,7,9) occ(21,7,11) occ(22,7,12) occ(35,7,10) occ(57,7,1) occ(69,7,5) occ(87,7,2) occ(95,7,6) occ(118,7,8) occ(129,7,3) occ(135,7,4) occ(15,8,11) occ(20,8,10) occ(37,8,12) occ(67,8,3) occ(71,8,7) occ(74,8,9) occ(78,8,5) occ(81,8,6) occ(85,8,4) occ(88,8,2) occ(97,8,8) occ(131,8,1) occ(14,9,6) occ(18,9,8) occ(19,9,10) occ(59,9,2) occ(76,9,7) occ(86,9,4) occ(89,9,1) occ(93,9,5) occ(108,9,11) occ(116,9,9) occ(137,9,3) occ(6,10,9) occ(7,10,7) occ(12,10,4) occ(13,10,12) occ(65,10,2) occ(80,10,6) occ(83,10,5) occ(90,10,1) occ(91,10,3) occ(100,10,10) occ(104,10,8) occ(114,10,11) occ(4,11,11) occ(8,11,7) occ(9,11,9) occ(61,11,3) occ(84,11,5) occ(94,11,4) occ(98,11,8) occ(106,11,10) occ(110,11,12) occ(139,11,2) occ(5,12,8) occ(10,12,5) occ(11,12,11) occ(63,12,1) occ(82,12,7) occ(92,12,2) occ(96,12,6) occ(102,12,9) occ(112,12,10) occ(141,12,4)
Optimization: -120
Answer: 10
occ(1,5,4) occ(1,1,8) occ(1,12,3) occ(1,5,12) occ(2,9,12) occ(3,11,6) coverage(123) occ(15,1,6) occ(42,1,4) occ(64,1,9) occ(77,1,7) occ(89,1,5) occ(93,1,1) occ(12,2,10) occ(17,2,4) occ(36,2,8) occ(40,2,6) occ(62,2,7) occ(66,2,11) occ(75,2,5) occ(79,2,9) occ(91,2,3) occ(10,3,8) occ(13,3,7) occ(14,3,12) occ(21,3,1) occ(24,3,9) occ(34,3,10) occ(44,3,3) occ(81,3,11) occ(82,3,4) occ(87,3,6) occ(95,3,2) occ(8,4,10) occ(11,4,5) occ(19,4,3) occ(22,4,11) occ(38,4,7) occ(46,4,1) occ(60,4,8) occ(68,4,12) occ(73,4,4) occ(83,4,9) occ(84,4,2) occ(16,5,11) occ(23,5,2) occ(26,5,8) occ(32,5,9) occ(48,5,3) occ(58,5,10) occ(71,5,6) occ(80,5,5) occ(85,5,7) occ(97,5,1) occ(6,6,9) occ(9,6,4) occ(20,6,10) occ(30,6,7) occ(50,6,5) occ(53,6,12) occ(56,6,8) occ(70,6,11) occ(86,6,1) occ(99,6,3) occ(108,6,6) occ(4,7,11) occ(18,7,12) occ(25,7,1) occ(28,7,9) occ(51,7,10) occ(52,7,7) occ(69,7,5) occ(74,7,8) occ(78,7,6) occ(90,7,4) occ(103,7,2) occ(104,7,3) occ(7,8,3) occ(37,8,6) occ(49,8,8) occ(54,8,9) occ(55,8,11) occ(72,8,10) occ(88,8,2) occ(101,8,4) occ(102,8,1) occ(106,8,5) occ(110,8,7) occ(27,9,2) occ(33,9,5) occ(39,9,8) occ(47,9,6) occ(67,9,4) occ(76,9,7) occ(92,9,3) occ(105,9,1) occ(112,9,9) occ(120,9,11) occ(5,10,4) occ(31,10,3) occ(35,10,7) occ(57,10,12) occ(61,10,10) occ(65,10,6) occ(94,10,1) occ(100,10,2) occ(111,10,5) occ(114,10,11) occ(119,10,9) occ(29,11,1) occ(41,11,9) occ(45,11,5) occ(63,11,8) occ(98,11,4) occ(107,11,2) occ(113,11,3) occ(117,11,7) occ(118,11,12) occ(121,11,11) occ(122,11,10) occ(43,12,7) occ(59,12,11) occ(96,12,2) occ(109,12,4) occ(115,12,5) occ(116,12,10)
Optimization: -123
Answer: 11
occ(1,5,4) occ(1,1,8) occ(1,12,3) occ(1,5,12) occ(2,9,12) occ(3,11,6) coverage(129) occ(25,1,7) occ(28,1,1) occ(31,1,12) occ(49,1,9) occ(91,1,4) occ(98,1,6) occ(99,1,2) occ(104,1,3) occ(26,2,3) occ(27,2,9) occ(33,2,10) occ(51,2,7) occ(89,2,2) occ(96,2,8) occ(97,2,4) occ(102,2,5) occ(106,2,1) occ(117,2,6) occ(123,2,11) occ(23,3,6) occ(29,3,11) occ(30,3,2) occ(37,3,9) occ(47,3,10) occ(53,3,5) occ(93,3,3) occ(100,3,7) occ(101,3,1) occ(115,3,4) occ(119,3,8) occ(24,4,4) occ(35,4,11) occ(42,4,7) occ(55,4,3) occ(73,4,8) occ(77,4,6) occ(87,4,1) occ(94,4,9) occ(95,4,5) occ(108,4,2) occ(121,4,10) occ(125,4,12) occ(21,5,5) occ(22,5,6) occ(32,5,1) occ(39,5,8) occ(45,5,11) occ(71,5,10) occ(92,5,7) occ(103,5,2) occ(113,5,3) occ(34,6,3) occ(40,6,6) occ(41,6,10) occ(44,6,8) occ(57,6,4) occ(75,6,7) occ(79,6,5) occ(85,6,2) occ(90,6,9) occ(110,6,1) occ(127,6,11) occ(19,7,6) occ(20,7,7) occ(36,7,5) occ(43,7,12) occ(46,7,10) occ(69,7,11) occ(72,7,9) occ(78,7,8) occ(83,7,4) occ(105,7,1) occ(111,7,2) occ(112,7,3) occ(16,8,4) occ(38,8,7) occ(59,8,5) occ(67,8,9) occ(70,8,11) occ(76,8,10) occ(81,8,6) occ(88,8,8) occ(107,8,3) occ(114,8,1) occ(120,8,2) occ(9,9,3) occ(17,9,5) occ(18,9,6) occ(48,9,11) occ(68,9,9) occ(74,9,8) occ(80,9,7) occ(86,9,10) occ(109,9,1) occ(118,9,4) occ(126,9,2) occ(4,10,10) occ(11,10,1) occ(14,10,5) occ(58,10,7) occ(61,10,6) occ(65,10,8) occ(66,10,11) occ(82,10,9) occ(116,10,2) occ(122,10,3) occ(128,10,4) occ(7,11,2) occ(8,11,7) occ(12,11,3) occ(15,11,4) occ(50,11,12) occ(54,11,8) occ(62,11,10) occ(84,11,11) occ(124,11,1) occ(5,12,4) occ(6,12,9) occ(10,12,5) occ(13,12,2) occ(52,12,10) occ(56,12,6) occ(60,12,8) occ(63,12,7) occ(64,12,12)
Optimization: -129
Answer: 12
occ(1,5,4) occ(1,1,8) occ(1,12,3) occ(1,5,12) occ(2,9,12) occ(3,11,6) coverage(131) occ(25,1,7) occ(28,1,1) occ(31,1,12) occ(49,1,9) occ(91,1,4) occ(98,1,6) occ(99,1,2) occ(104,1,3) occ(26,2,3) occ(27,2,9) occ(33,2,10) occ(51,2,7) occ(89,2,2) occ(96,2,8) occ(97,2,4) occ(102,2,5) occ(106,2,1) occ(117,2,6) occ(123,2,11) occ(23,3,6) occ(29,3,11) occ(30,3,2) occ(37,3,9) occ(47,3,10) occ(53,3,5) occ(93,3,3) occ(100,3,7) occ(101,3,1) occ(115,3,4) occ(119,3,8) occ(24,4,4) occ(35,4,11) occ(42,4,7) occ(55,4,3) occ(77,4,6) occ(87,4,1) occ(88,4,8) occ(94,4,9) occ(95,4,5) occ(108,4,2) occ(121,4,10) occ(125,4,12) occ(21,5,5) occ(22,5,6) occ(32,5,1) occ(39,5,8) occ(45,5,11) occ(76,5,9) occ(86,5,10) occ(92,5,7) occ(103,5,2) occ(113,5,3) occ(34,6,3) occ(40,6,6) occ(41,6,10) occ(44,6,8) occ(57,6,4) occ(72,6,12) occ(75,6,7) occ(79,6,5) occ(85,6,2) occ(90,6,9) occ(110,6,1) occ(127,6,11) occ(19,7,6) occ(20,7,7) occ(36,7,5) occ(43,7,12) occ(74,7,10) occ(78,7,8) occ(83,7,4) occ(84,7,9) occ(105,7,1) occ(111,7,2) occ(112,7,3) occ(16,8,4) occ(38,8,7) occ(46,8,9) occ(59,8,5) occ(70,8,11) occ(73,8,8) occ(80,8,10) occ(81,8,6) occ(107,8,3) occ(114,8,1) occ(120,8,2) occ(129,8,12) occ(9,9,3) occ(12,9,7) occ(17,9,5) occ(18,9,6) occ(48,9,11) occ(68,9,9) occ(71,9,10) occ(82,9,8) occ(109,9,1) occ(118,9,4) occ(126,9,2) occ(4,10,10) occ(10,10,9) occ(11,10,1) occ(14,10,5) occ(58,10,7) occ(61,10,6) occ(66,10,11) occ(69,10,12) occ(116,10,2) occ(122,10,3) occ(128,10,4) occ(7,11,2) occ(8,11,7) occ(15,11,4) occ(50,11,12) occ(54,11,8) occ(62,11,10) occ(65,11,9) occ(124,11,1) occ(5,12,4) occ(6,12,9) occ(13,12,2) occ(52,12,10) occ(56,12,6) occ(60,12,8) occ(63,12,7) occ(64,12,12) occ(67,12,11) occ(130,12,5)
Optimization: -131
Answer: 13
occ(1,5,4) occ(1,1,8) occ(1,12,3) occ(1,5,12) occ(2,9,12) occ(3,11,6) coverage(134) occ(28,1,5) occ(61,1,3) occ(73,1,7) occ(81,1,11) occ(87,1,12) occ(118,1,6) occ(122,1,2) occ(129,1,9) occ(26,2,7) occ(32,2,2) occ(59,2,1) occ(75,2,5) occ(76,2,12) occ(79,2,9) occ(85,2,10) occ(120,2,4) occ(126,2,3) occ(127,2,11) occ(133,2,6) occ(30,3,4) occ(57,3,3) occ(63,3,2) occ(71,3,6) occ(74,3,10) occ(77,3,7) occ(83,3,12) occ(89,3,11) occ(108,3,9) occ(116,3,5) occ(124,3,1) occ(131,3,8) occ(24,4,8) occ(34,4,1) occ(66,4,5) occ(67,4,3) occ(70,4,7) occ(78,4,11) occ(91,4,9) occ(109,4,2) occ(125,4,10) occ(128,4,4) occ(132,4,6) occ(16,5,7) occ(55,5,2) occ(65,5,1) occ(69,5,5) occ(72,5,9) occ(93,5,11) occ(106,5,8) occ(110,5,10) occ(114,5,6) occ(14,6,9) occ(22,6,7) occ(36,6,2) occ(64,6,4) occ(68,6,6) occ(80,6,12) occ(97,6,10) occ(107,6,1) occ(111,6,3) occ(112,6,8) occ(123,6,11) occ(130,6,5) occ(8,7,9) occ(12,7,11) occ(18,7,6) occ(40,7,3) occ(46,7,2) occ(53,7,1) occ(95,7,12) occ(99,7,8) occ(103,7,4) occ(104,7,7) occ(113,7,5) occ(119,7,10) occ(4,8,10) occ(20,8,8) occ(38,8,1) occ(44,8,4) occ(51,8,3) occ(62,8,5) occ(82,8,11) occ(101,8,6) occ(102,8,9) occ(105,8,2) occ(115,8,7) occ(121,8,12) occ(6,9,8) occ(9,9,3) occ(10,9,10) occ(39,9,6) occ(42,9,2) occ(43,9,4) occ(48,9,1) occ(52,9,5) occ(60,9,7) occ(100,9,11) occ(117,9,9) occ(11,10,1) occ(17,10,6) occ(21,10,8) occ(27,10,9) occ(37,10,4) occ(49,10,2) occ(50,10,3) occ(54,10,7) occ(58,10,5) occ(84,10,12) occ(90,10,11) occ(96,10,10) occ(7,11,2) occ(15,11,4) occ(23,11,10) occ(29,11,11) occ(33,11,7) occ(41,11,5) occ(45,11,3) occ(88,11,9) occ(94,11,8) occ(98,11,12) occ(5,12,4) occ(13,12,2) occ(19,12,7) occ(25,12,8) occ(31,12,9) occ(35,12,5) occ(47,12,1) occ(56,12,6) occ(86,12,11) occ(92,12,10)
Optimization: -134
Answer: 14
occ(1,5,4) occ(1,1,8) occ(1,12,3) occ(1,5,12) occ(2,9,12) occ(3,11,6) coverage(135) occ(24,1,9) occ(30,1,10) occ(47,1,12) occ(74,1,6) occ(75,1,2) occ(79,1,4) occ(80,1,7) occ(88,1,5) occ(132,1,3) occ(26,2,11) occ(32,2,12) occ(45,2,10) occ(52,2,8) occ(72,2,4) occ(78,2,9) occ(81,2,2) occ(82,2,5) occ(86,2,7) occ(90,2,3) occ(100,2,6) occ(134,2,1) occ(22,3,8) occ(28,3,9) occ(43,3,12) occ(49,3,11) occ(54,3,10) occ(62,3,6) occ(70,3,2) occ(73,3,1) occ(76,3,7) occ(77,3,3) occ(104,3,5) occ(130,3,4) occ(34,4,11) occ(41,4,10) occ(50,4,9) occ(60,4,8) occ(66,4,3) occ(83,4,1) occ(84,4,6) occ(92,4,4) occ(98,4,5) occ(102,4,7) occ(128,4,2) occ(20,5,7) occ(48,5,11) occ(51,5,10) occ(56,5,9) occ(64,5,5) occ(68,5,1) occ(71,5,2) occ(96,5,3) occ(106,5,6) occ(111,5,8) occ(36,6,12) occ(39,6,11) occ(40,6,10) occ(46,6,9) occ(58,6,7) occ(85,6,2) occ(94,6,5) occ(103,6,1) occ(109,6,6) occ(120,6,8) occ(126,6,3) occ(133,6,4) occ(18,7,8) occ(29,7,5) occ(42,7,12) occ(53,7,11) occ(69,7,1) occ(101,7,3) occ(107,7,4) occ(108,7,7) occ(113,7,9) occ(118,7,10) occ(122,7,6) occ(131,7,2) occ(14,8,5) occ(25,8,6) occ(33,8,8) occ(37,8,12) occ(38,8,11) occ(44,8,10) occ(55,8,9) occ(87,8,3) occ(99,8,1) occ(105,8,2) occ(115,8,7) occ(124,8,4) occ(13,9,11) occ(16,9,7) occ(27,9,4) occ(31,9,6) occ(35,9,10) occ(67,9,2) occ(97,9,3) occ(110,9,8) occ(116,9,9) occ(117,9,5) occ(129,9,1) occ(7,10,9) occ(12,10,4) occ(19,10,11) occ(23,10,7) occ(57,10,8) occ(63,10,3) occ(89,10,2) occ(95,10,1) occ(112,10,6) occ(123,10,5) occ(4,11,11) occ(8,11,7) occ(11,11,12) occ(15,11,10) occ(21,11,9) occ(61,11,5) occ(65,11,1) occ(93,11,3) occ(114,11,8) occ(119,11,4) occ(127,11,2) occ(5,12,8) occ(6,12,9) occ(9,12,10) occ(10,12,5) occ(17,12,12) occ(59,12,7) occ(91,12,1) occ(121,12,6) occ(125,12,4)
Optimization: -135
Answer: 15
occ(1,5,4) occ(1,1,8) occ(1,12,3) occ(1,5,12) occ(2,9,12) occ(3,11,6) coverage(136) occ(24,1,9) occ(30,1,10) occ(47,1,12) occ(74,1,6) occ(75,1,2) occ(79,1,4) occ(80,1,7) occ(84,1,3) occ(26,2,11) occ(32,2,12) occ(45,2,10) occ(52,2,8) occ(72,2,4) occ(78,2,9) occ(81,2,2) occ(82,2,5) occ(86,2,1) occ(90,2,3) occ(100,2,6) occ(134,2,7) occ(22,3,8) occ(28,3,9) occ(43,3,12) occ(49,3,11) occ(54,3,10) occ(62,3,6) occ(70,3,2) occ(73,3,1) occ(76,3,7) occ(77,3,3) occ(102,3,4) occ(132,3,5) occ(34,4,11) occ(41,4,10) occ(50,4,9) occ(60,4,8) occ(66,4,3) occ(83,4,1) occ(88,4,2) occ(92,4,4) occ(98,4,5) occ(104,4,6) occ(111,4,7) occ(20,5,7) occ(48,5,11) occ(51,5,10) occ(56,5,9) occ(64,5,5) occ(68,5,1) occ(71,5,2) occ(96,5,3) occ(106,5,8) occ(130,5,6) occ(36,6,12) occ(39,6,11) occ(40,6,10) occ(46,6,9) occ(58,6,7) occ(85,6,2) occ(94,6,5) occ(103,6,1) occ(109,6,6) occ(113,6,8) occ(135,6,3) occ(18,7,8) occ(29,7,5) occ(42,7,12) occ(53,7,11) occ(69,7,1) occ(101,7,3) occ(107,7,4) occ(108,7,9) occ(115,7,6) occ(118,7,10) occ(128,7,7) occ(131,7,2) occ(14,8,5) occ(25,8,6) occ(33,8,8) occ(37,8,12) occ(38,8,11) occ(44,8,10) occ(55,8,9) occ(87,8,3) occ(99,8,1) occ(105,8,2) occ(110,8,7) occ(133,8,4) occ(16,9,7) occ(27,9,4) occ(31,9,6) occ(35,9,10) occ(67,9,2) occ(97,9,3) occ(116,9,9) occ(117,9,5) occ(120,9,11) occ(126,9,8) occ(129,9,1) occ(7,10,9) occ(11,10,11) occ(12,10,4) occ(17,10,12) occ(23,10,7) occ(57,10,8) occ(63,10,3) occ(89,10,2) occ(95,10,1) occ(112,10,6) occ(123,10,5) occ(124,10,10) occ(4,11,11) occ(8,11,7) occ(15,11,10) occ(21,11,9) occ(61,11,5) occ(65,11,1) occ(93,11,3) occ(114,11,8) occ(119,11,4) occ(122,11,12) occ(127,11,2) occ(5,12,8) occ(6,12,9) occ(9,12,10) occ(10,12,5) occ(13,12,12) occ(19,12,11) occ(59,12,7) occ(91,12,1) occ(121,12,6) occ(125,12,4)
Optimization: -136
Answer: 16
occ(1,5,4) occ(1,1,8) occ(1,12,3) occ(1,5,12) occ(2,9,12) occ(3,11,6) coverage(137) occ(24,1,9) occ(30,1,10) occ(47,1,12) occ(74,1,6) occ(75,1,2) occ(79,1,4) occ(80,1,7) occ(84,1,3) occ(136,1,5) occ(26,2,11) occ(32,2,12) occ(45,2,10) occ(52,2,8) occ(72,2,4) occ(78,2,9) occ(81,2,2) occ(82,2,5) occ(86,2,1) occ(90,2,3) occ(100,2,6) occ(134,2,7) occ(22,3,8) occ(28,3,9) occ(43,3,12) occ(49,3,11) occ(54,3,10) occ(62,3,6) occ(70,3,2) occ(73,3,1) occ(76,3,7) occ(77,3,3) occ(102,3,4) occ(132,3,5) occ(34,4,11) occ(41,4,10) occ(50,4,9) occ(60,4,8) occ(66,4,3) occ(83,4,1) occ(88,4,2) occ(92,4,4) occ(98,4,5) occ(104,4,6) occ(111,4,7) occ(20,5,7) occ(48,5,11) occ(51,5,10) occ(56,5,9) occ(64,5,5) occ(68,5,1) occ(71,5,2) occ(96,5,3) occ(106,5,8) occ(130,5,6) occ(36,6,12) occ(39,6,11) occ(40,6,10) occ(46,6,9) occ(58,6,7) occ(85,6,2) occ(94,6,5) occ(103,6,1) occ(109,6,6) occ(113,6,8) occ(135,6,3) occ(18,7,8) occ(29,7,5) occ(42,7,12) occ(53,7,11) occ(69,7,1) occ(101,7,3) occ(107,7,4) occ(108,7,9) occ(115,7,6) occ(118,7,10) occ(128,7,7) occ(131,7,2) occ(14,8,5) occ(25,8,6) occ(33,8,8) occ(37,8,12) occ(38,8,11) occ(44,8,10) occ(55,8,9) occ(87,8,3) occ(99,8,1) occ(105,8,2) occ(110,8,7) occ(133,8,4) occ(16,9,7) occ(27,9,4) occ(31,9,6) occ(35,9,10) occ(67,9,2) occ(97,9,3) occ(116,9,9) occ(117,9,5) occ(120,9,11) occ(126,9,8) occ(129,9,1) occ(7,10,9) occ(11,10,11) occ(12,10,4) occ(17,10,12) occ(23,10,7) occ(57,10,8) occ(63,10,3) occ(89,10,2) occ(95,10,1) occ(112,10,6) occ(123,10,5) occ(124,10,10) occ(4,11,11) occ(8,11,7) occ(15,11,10) occ(21,11,9) occ(61,11,5) occ(65,11,1) occ(93,11,3) occ(114,11,8) occ(119,11,4) occ(122,11,12) occ(127,11,2) occ(5,12,8) occ(6,12,9) occ(9,12,10) occ(10,12,5) occ(13,12,12) occ(19,12,11) occ(59,12,7) occ(91,12,1) occ(121,12,6) occ(125,12,4)
Optimization: -137
Answer: 17
occ(1,5,4) occ(1,1,8) occ(1,12,3) occ(1,5,12) occ(2,9,12) occ(3,11,6) coverage(138) occ(33,1,11) occ(42,1,4) occ(57,1,7) occ(61,1,3) occ(98,1,2) occ(104,1,5) occ(107,1,12) occ(108,1,9) occ(114,1,10) occ(118,1,6) occ(31,2,9) occ(37,2,12) occ(44,2,6) occ(59,2,5) occ(63,2,1) occ(96,2,4) occ(102,2,3) occ(106,2,7) occ(109,2,10) occ(110,2,11) occ(116,2,8) occ(124,2,2) occ(10,3,6) occ(29,3,7) occ(35,3,10) occ(40,3,3) occ(46,3,4) occ(55,3,8) occ(94,3,2) occ(100,3,1) occ(105,3,11) occ(111,3,12) occ(112,3,9) occ(120,3,5) occ(8,4,8) occ(27,4,5) occ(36,4,4) occ(39,4,11) occ(47,4,7) occ(53,4,6) occ(65,4,2) occ(103,4,9) occ(113,4,10) occ(122,4,3) occ(126,4,1) occ(6,5,10) occ(12,5,7) occ(23,5,6) occ(30,5,8) occ(38,5,2) occ(45,5,9) occ(48,5,3) occ(49,5,5) occ(92,5,1) occ(101,5,11) occ(21,6,8) occ(25,6,4) occ(28,6,6) occ(34,6,5) occ(41,6,10) occ(51,6,7) occ(67,6,1) occ(70,6,3) occ(99,6,9) occ(115,6,11) occ(128,6,2) occ(137,6,12) occ(4,7,11) occ(14,7,6) occ(15,7,12) occ(32,7,7) occ(43,7,8) occ(50,7,4) occ(64,7,5) occ(68,7,1) occ(69,7,3) occ(90,7,2) occ(117,7,9) occ(135,7,10) occ(13,8,10) occ(19,8,9) occ(26,8,5) occ(52,8,6) occ(56,8,4) occ(66,8,3) occ(72,8,2) occ(97,8,8) occ(119,8,7) occ(123,8,11) occ(130,8,1) occ(133,8,12) occ(16,9,5) occ(17,9,11) occ(24,9,7) occ(58,9,6) occ(62,9,4) occ(71,9,2) occ(80,9,3) occ(87,9,8) occ(88,9,1) occ(121,9,9) occ(131,9,10) occ(11,10,11) occ(18,10,7) occ(54,10,5) occ(73,10,4) occ(74,10,1) occ(81,10,8) occ(85,10,6) occ(86,10,3) occ(89,10,10) occ(95,10,9) occ(125,10,12) occ(132,10,2) occ(7,11,10) occ(22,11,8) occ(60,11,5) occ(77,11,7) occ(78,11,4) occ(82,11,2) occ(91,11,12) occ(129,11,9) occ(136,11,3) occ(5,12,8) occ(9,12,12) occ(20,12,6) occ(75,12,5) occ(76,12,2) occ(79,12,9) occ(83,12,7) occ(84,12,4) occ(93,12,10) occ(127,12,11) occ(134,12,1)
Optimization: -138
*** Info : (clingo): INTERRUPTED by signal!
SATISFIABLE

TIME LIMIT   : 1
Models       : 17+
  Optimum    : unknown
Optimization : -138
Calls        : 1
Time         : 300.000s (Solving: 294.81s 1st Model: 0.01s Unsat: 0.00s)
CPU Time     : 299.998s
